language ESSENCE' 1.0
letting lastdx=99
letting cage be [
[10,6,13,0,0, 0,0, 0,0, 0,0],
[16,11,11,11,12,11,13,10,13,0,0],
[10,8,1,9,1,9,2,0,0, 0,0],
[3,5,7,0,0, 0,0, 0,0, 0,0],
[2,15,13,0,0, 0,0, 0,0, 0,0],
[3,14,6,0,0, 0,0, 0,0, 0,0],
[10,7,12,6,12,0,0, 0,0, 0,0],
[8,7,4,0,0, 0,0, 0,0, 0,0],
[1,15,2,0,0, 0,0, 0,0, 0,0],
[38,2,4,3,4,3,3,3,2,0,0],
[10,10,14,0,0, 0,0, 0,0, 0,0],
[25,3,6,2,6,2,7,0,0, 0,0],
[12,9,16,0,0, 0,0, 0,0, 0,0],
[23,7,2,7,1,0,0, 0,0, 0,0],
[16,11,10,11,9,0,0, 0,0, 0,0],
[4,4,11,4,10,0,0, 0,0, 0,0],
[29,13,7,14,7,14,8,0,0, 0,0],
[44,7,5,6,5,6,4,5,4,5,5],
[15,16,16,15,16,14,16,0,0, 0,0],
[41,7,7,6,7,6,6,7,6,8,6],
[44,13,3,13,2,14,2,14,1,0,0],
[24,3,9,4,9,0,0, 0,0, 0,0],
[24,15,12,16,12,0,0, 0,0, 0,0],
[17,5,13,5,14,6,14,6,15,0,0],
[50,1,16,1,15,2,15,3,15,3,14],
[33,6,10,7,10,8,10,0,0, 0,0],
[2,11,16,0,0, 0,0, 0,0, 0,0],
[30,12,6,12,5,11,5,11,6,0,0],
[32,8,5,8,4,9,4,0,0, 0,0],
[21,7,13,7,14,0,0, 0,0, 0,0],
[28,1,12,2,12,3,12,0,0, 0,0],
[2,5,12,0,0, 0,0, 0,0, 0,0],
[11,5,3,0,0, 0,0, 0,0, 0,0],
[32,10,8,11,8,11,7,0,0, 0,0],
[43,10,12,10,11,10,10,10,9,9,9],
[28,3,5,4,5,4,4,0,0, 0,0],
[6,13,12,0,0, 0,0, 0,0, 0,0],
[6,12,2,0,0, 0,0, 0,0, 0,0],
[40,15,11,15,10,16,10,16,11,0,0],
[19,9,8,8,8,7,8,7,9,8,9],
[27,15,6,16,6,16,7,16,8,16,9],
[54,11,14,12,14,13,14,14,14,15,14],
[9,11,1,0,0, 0,0, 0,0, 0,0],
[27,14,3,15,3,16,3,0,0, 0,0],
[10,5,6,0,0, 0,0, 0,0, 0,0],
[20,13,15,13,16,0,0, 0,0, 0,0],
[22,10,15,10,16,0,0, 0,0, 0,0],
[12,6,11,0,0, 0,0, 0,0, 0,0],
[2,2,8,0,0, 0,0, 0,0, 0,0],
[22,7,3,6,3,6,2,0,0, 0,0],
[29,15,9,15,8,15,7,0,0, 0,0],
[28,1,4,1,5,2,5,1,6,0,0],
[45,4,2,4,3,4,1,3,1,2,1],
[56,3,7,3,8,4,8,4,7,4,6],
[21,13,11,12,11,0,0, 0,0, 0,0],
[16,14,10,14,9,0,0, 0,0, 0,0],
[11,15,5,0,0, 0,0, 0,0, 0,0],
[30,8,12,8,11,7,11,0,0, 0,0],
[12,1,10,0,0, 0,0, 0,0, 0,0],
[12,8,13,0,0, 0,0, 0,0, 0,0],
[24,1,9,1,8,1,7,0,0, 0,0],
[35,16,15,15,15,14,15,0,0, 0,0],
[41,10,2,10,1,10,3,10,4,11,4],
[45,6,16,7,16,8,16,8,15,7,15],
[5,9,10,0,0, 0,0, 0,0, 0,0],
[63,10,5,10,6,10,7,9,7,8,7],
[12,2,2,0,0, 0,0, 0,0, 0,0],
[3,8,14,0,0, 0,0, 0,0, 0,0],
[15,2,10,2,9,0,0, 0,0, 0,0],
[34,5,1,5,2,6,1,0,0, 0,0],
[22,16,14,16,13,0,0, 0,0, 0,0],
[23,4,13,4,12,0,0, 0,0, 0,0],
[30,1,1,1,2,1,3,2,3,0,0],
[14,1,11,2,11,0,0, 0,0, 0,0],
[23,1,13,2,13,3,13,0,0, 0,0],
[15,1,14,2,14,0,0, 0,0, 0,0],
[8,3,10,3,11,0,0, 0,0, 0,0],
[14,4,14,4,15,0,0, 0,0, 0,0],
[4,5,8,0,0, 0,0, 0,0, 0,0],
[22,5,10,5,11,0,0, 0,0, 0,0],
[9,8,2,0,0, 0,0, 0,0, 0,0],
[21,8,3,9,3,0,0, 0,0, 0,0],
[10,9,5,9,6,0,0, 0,0, 0,0],
[11,9,11,0,0, 0,0, 0,0, 0,0],
[8,9,12,0,0, 0,0, 0,0, 0,0],
[23,9,13,9,14,9,15,0,0, 0,0],
[51,11,2,11,3,12,3,12,4,13,4],
[3,11,15,0,0, 0,0, 0,0, 0,0],
[5,12,1,13,1,0,0, 0,0, 0,0],
[35,12,7,12,8,12,9,12,10,0,0],
[12,12,12,0,0, 0,0, 0,0, 0,0],
[11,12,13,0,0, 0,0, 0,0, 0,0],
[11,12,15,12,16,0,0, 0,0, 0,0],
[39,13,5,13,6,14,5,14,4,15,4],
[13,13,8,0,0, 0,0, 0,0, 0,0],
[25,13,9,13,10,0,0, 0,0, 0,0],
[19,13,13,14,13,0,0, 0,0, 0,0],
[10,14,11,14,12,0,0, 0,0, 0,0],
[31,15,1,16,1,16,2,0,0, 0,0],
[16,16,4,16,5,0,0, 0,0, 0,0]
]
